========================================================== 
File name: C:\DEGR\assets\definitions\MSRCPSP_Gen\200_5_64_5_C.def
Creation date: Wed May 03 10:45:23 CEST 2023
Website: http://imopse.ii.pwr.edu.pl/ 
Reference: 
Myszkowski P. B., Skowronski M. E., Olech L., Oslizlo K., 
Hybrid Ant Colony Optimization in solving Multi-Skill Resource-Constrained Project Scheduling Problem, 
Soft Computing, DOI: DOI 10.1007/s00500-014-1455-x 
========================================================== 
General characteristics: 
Tasks: 200
Resources: 5
Precedence relations: 62
Number of skill types: 4
========================================================== 
ResourceID 	 Salary 	 Skills 
1	 	 	59.0	 	 Q0: 1 	  Q3: 2 	  Q4: 1 	 
2	 	 	96.8	 	 Q3: 0 	 
3	 	 	52.7	 	 Q0: 1 	 
4	 	 	86.8	 	 Q1: 0 	  Q0: 3 	 
5	 	 	93.9	 	 Q3: 0 	  Q1: 0 	  Q4: 3 	 
========================================================== 
TaskID 	 Duration 	 Skill 	 Predecessor IDs 
1	11	Q4:	1
2	28	Q4:	3
3	30	Q0:	1
4	39	Q3:	0
5	22	Q3:	0
6	36	Q1:	0
7	36	Q3:	0
8	39	Q0:	3
9	19	Q4:	1
10	35	Q4:	3
11	17	Q0:	1
12	19	Q0:	1
13	37	Q4:	3
14	22	Q3:	0
15	18	Q0:	3
16	39	Q4:	1
17	23	Q1:	0
18	14	Q3:	0
19	37	Q0:	1
20	32	Q0:	1
21	29	Q1:	0
22	34	Q3:	0
23	25	Q0:	3
24	8	Q4:	3
25	34	Q4:	3
26	9	Q3:	2	17
27	16	Q0:	3
28	29	Q3:	0
29	26	Q3:	2
30	24	Q3:	2
31	30	Q0:	3
32	20	Q0:	3
33	28	Q1:	0
34	22	Q4:	3
35	31	Q4:	3
36	40	Q0:	1	32
37	15	Q0:	1
38	14	Q1:	0
39	9	Q1:	0
40	29	Q1:	0
41	11	Q4:	1
42	22	Q4:	3
43	34	Q4:	3
44	36	Q4:	1
45	33	Q1:	0
46	15	Q1:	0
47	38	Q1:	0
48	32	Q3:	0	4
49	36	Q0:	3
50	36	Q0:	1
51	25	Q1:	0
52	19	Q1:	0	39
53	25	Q0:	1
54	24	Q4:	1
55	14	Q3:	0
56	29	Q0:	1
57	40	Q3:	2
58	14	Q0:	1
59	11	Q4:	3
60	38	Q3:	2
61	31	Q1:	0
62	15	Q4:	1
63	14	Q3:	2
64	15	Q0:	1
65	30	Q0:	3
66	14	Q1:	0
67	28	Q4:	3
68	13	Q0:	3
69	16	Q4:	1
70	21	Q1:	0
71	22	Q1:	0
72	29	Q0:	3
73	10	Q0:	3
74	40	Q3:	0
75	20	Q0:	3	10	18
76	32	Q0:	1
77	40	Q4:	3
78	12	Q3:	2
79	11	Q3:	2
80	12	Q4:	1
81	25	Q0:	1	55
82	20	Q3:	0
83	9	Q3:	0
84	30	Q3:	0	37
85	10	Q3:	0
86	20	Q4:	3	65
87	19	Q0:	3	54
88	30	Q1:	0
89	12	Q3:	0
90	24	Q4:	1
91	36	Q1:	0
92	15	Q0:	1
93	18	Q4:	1
94	23	Q4:	3
95	36	Q3:	2	93
96	14	Q4:	1
97	28	Q3:	0
98	29	Q0:	1
99	35	Q0:	3	64
100	18	Q4:	3	3
101	28	Q3:	0
102	21	Q4:	1
103	15	Q4:	3	100
104	31	Q0:	3
105	28	Q4:	1
106	21	Q0:	1
107	11	Q3:	0
108	21	Q4:	3
109	14	Q4:	1
110	38	Q4:	1	26
111	34	Q3:	0	62
112	23	Q4:	1
113	15	Q3:	0	83
114	16	Q4:	3
115	38	Q0:	3
116	10	Q3:	2
117	19	Q0:	3
118	21	Q3:	0
119	14	Q3:	2
120	12	Q1:	0	80
121	11	Q4:	3
122	11	Q3:	0
123	11	Q1:	0
124	19	Q4:	3
125	15	Q1:	0	7
126	28	Q3:	2
127	17	Q4:	3
128	12	Q4:	3
129	31	Q4:	1
130	21	Q3:	2
131	10	Q4:	1
132	40	Q0:	3	66
133	29	Q1:	0	30	26
134	21	Q1:	0
135	20	Q4:	3	64
136	15	Q0:	3	7
137	24	Q0:	1	28
138	23	Q4:	3	83	91	80
139	12	Q4:	3	50
140	9	Q3:	2
141	28	Q3:	2
142	22	Q0:	1
143	22	Q0:	1
144	30	Q3:	0
145	24	Q4:	3	128
146	40	Q3:	0	7
147	21	Q0:	3	70
148	12	Q4:	1
149	9	Q4:	1
150	29	Q0:	3	140
151	26	Q3:	0
152	30	Q0:	3	80	147
153	30	Q3:	0	147
154	33	Q1:	0	104
155	12	Q0:	1	50
156	34	Q3:	2	104
157	16	Q0:	3
158	20	Q0:	3
159	17	Q3:	2	57
160	25	Q1:	0
161	21	Q4:	3	127
162	20	Q4:	1	21
163	27	Q0:	3	104	61
164	40	Q4:	3
165	20	Q4:	3	155
166	25	Q1:	0	113
167	39	Q1:	0
168	15	Q3:	0	2
169	26	Q3:	0	77
170	32	Q3:	0
171	34	Q4:	3
172	18	Q0:	3
173	26	Q1:	0	96
174	14	Q4:	1
175	19	Q4:	1
176	25	Q0:	1
177	40	Q1:	0
178	35	Q0:	3	65
179	37	Q3:	2	99
180	33	Q1:	0
181	14	Q3:	0	161	142	121
182	11	Q1:	0
183	23	Q0:	3
184	40	Q0:	3
185	28	Q3:	2
186	37	Q4:	1	43
187	20	Q4:	1
188	25	Q4:	3
189	25	Q4:	3
190	28	Q4:	3	160	98
191	39	Q4:	3
192	9	Q1:	0
193	29	Q4:	1
194	23	Q1:	0
195	14	Q4:	1	20
196	18	Q4:	3	13	138
197	16	Q0:	3
198	29	Q4:	1	141
199	35	Q3:	2
200	10	Q0:	1	171
========================================================== 